c description: Random 3-CNF over 20 variables and 85 clauses
c generator: CNFgen (0.9.2)
c copyright: (C) 2012-2022 Massimo Lauria <massimo.lauria@uniroma1.it>
c url: https://massimolauria.net/cnfgen
c command line: cnfgen --output CNF_4.28/20_bit_85_260.cnf randkcnf 3 20 85
c
p cnf 20 85
-5 8 -13 0
-1 -12 18 0
1 -5 -16 0
-7 8 16 0
6 14 -16 0
-3 -11 -19 0
-12 18 -19 0
1 3 4 0
5 -8 20 0
-7 -9 -20 0
12 -13 -14 0
8 -10 -13 0
-15 -17 -18 0
-7 -8 12 0
2 3 15 0
-6 -10 -13 0
1 12 -14 0
-2 10 -20 0
1 -8 -15 0
4 6 -10 0
-4 6 8 0
-12 -17 -18 0
-1 2 17 0
5 -6 7 0
-3 -7 -9 0
1 10 -14 0
-8 11 19 0
7 11 20 0
1 -13 -17 0
-1 -16 -18 0
-10 12 -18 0
4 17 19 0
-2 11 -17 0
4 -9 14 0
1 -7 -17 0
-7 14 -17 0
-2 -5 -6 0
-5 -14 -16 0
-5 11 15 0
1 4 10 0
-9 16 -17 0
4 -12 13 0
-2 -6 -16 0
-4 10 -20 0
1 -6 -8 0
-8 9 11 0
-1 -4 -15 0
-12 17 18 0
-3 8 -16 0
-4 5 -16 0
11 -14 18 0
6 -10 -17 0
-11 12 19 0
-1 8 10 0
9 17 20 0
-2 3 -17 0
1 -2 19 0
2 6 12 0
-2 11 14 0
12 13 -16 0
8 -16 -18 0
3 13 -19 0
-3 -10 20 0
6 9 -16 0
6 -8 11 0
1 8 10 0
1 -10 16 0
16 -17 -20 0
1 -9 -16 0
3 -10 14 0
-9 -16 17 0
1 -12 18 0
-6 13 16 0
5 7 18 0
2 -5 -15 0
2 6 16 0
-1 8 -10 0
10 -13 -17 0
-2 7 19 0
-1 -4 13 0
-1 -2 15 0
3 -7 10 0
4 15 16 0
7 9 16 0
5 -6 12 0
